NAME : berlin52-R-5-0-c.14131.tour
COMMENT : Length = 14131
COMMENT : Found by LKH-3 [Keld Helsgaun] Tue Jul 30 13:14:23 2024
TYPE : TOUR
DIMENSION : 52
TOUR_SECTION
1
3
49
39
38
12
11
13
27
47
29
23
34
46
48
40
10
19
18
17
7
2
42
30
21
15
6
25
28
26
52
14
20
31
35
37
24
4
33
9
8
41
45
43
51
5
36
44
16
50
22
32
-1
EOF
